000 000 000 002 002 002 001 002 003 001 001 001 003 002 001 002 000 000 000 000 000 000 000 000 000 000 -99 000 -99 -99 000
000 000 000 000 001 003 004 003 002 002 002 002 003 001 002 001 001 000 000 000 000 000 000 000 000 000 -99 000 -99 -99 001
000 000 000 000 002 003 004 004 003 002 002 001 002 001 001 001 000 000 000 000 000 -99 000 000 000 000 -99 000 000 -99 001
000 000 000 001 001 007 004 002 005 002 001 001 002 001 001 001 000 000 000 000 000 -99 000 000 000 000 -99 000 -99 -99 001
000 000 000 001 001 005 008 006 007 004 001 001 002 002 000 001 001 001 000 000 000 000 000 000 000 000 -99 -99 -99 -99 000
000 000 000 000 002 002 008 004 007 010 003 001 001 001 001 001 002 001 000 000 000 000 000 000 000 -99 -99 -99 -99 -99 -99
000 000 000 000 001 002 004 006 010 010 003 001 001 002 002 002 002 001 000 000 000 000 000 000 000 000 -99 -99 -99 -99 -99
000 000 000 000 001 002 003 006 010 011 003 002 002 002 003 002 002 002 000 000 000 000 000 000 000 000 -99 -99 001 000 -99
000 000 000 000 001 002 003 005 009 009 003 002 003 004 004 003 003 001 000 000 000 000 000 000 000 000 000 000 001 000 -99
000 000 000 000 001 002 003 004 007 007 003 003 004 003 003 002 002 002 001 000 000 000 000 001 000 000 000 000 001 001 000
000 000 000 000 001 002 002 003 005 006 005 005 010 009 005 003 001 000 001 000 000 000 000 000 000 000 000 000 001 001 000
000 000 000 000 000 003 005 004 005 005 007 003 005 005 005 003 001 000 000 000 000 000 000 000 000 000 000 000 001 000 000
000 000 000 000 001 002 010 007 003 005 011 006 013 012 008 005 003 001 000 000 000 000 -99 000 000 000 000 005 006 000 000
000 000 000 000 001 002 006 023 009 005 013 015 012 011 015 015 008 002 000 000 000 000 -99 000 000 001 002 023 061 001 001
000 000 000 000 000 002 003 006 013 010 014 010 020 018 028 017 018 005 001 000 000 000 -99 000 000 001 005 049 064 001 000
000 000 000 000 001 003 005 004 009 009 011 008 022 017 029 018 027 006 001 001 001 000 000 001 000 004 020 094 044 000 001
000 001 001 001 001 004 008 007 010 009 012 014 019 028 025 023 028 010 002 001 001 001 001 002 005 002 026 022 046 000 000
000 003 005 003 003 006 011 013 017 018 012 013 015 026 020 021 023 024 008 001 001 002 003 002 008 002 017 013 011 000 000
002 006 007 006 010 019 024 008 017 021 022 013 017 027 019 020 024 039 012 002 004 005 005 006 012 004 010 012 006 000 000
004 011 007 012 017 017 019 010 017 019 017 014 021 020 017 018 035 052 012 002 006 005 006 006 008 004 002 -99 -99 -99 -99
025 035 042 026 017 016 009 006 024 031 025 024 030 015 019 020 046 044 008 004 009 006 006 006 005 004 002 -99 -99 -99 -99
021 031 041 029 021 019 009 009 026 051 040 028 035 015 019 022 056 053 016 004 010 009 008 006 006 004 001 -99 -99 -99 -99
010 021 026 029 016 017 009 010 019 051 053 028 029 009 014 026 060 080 043 010 010 013 014 010 009 006 002 -99 -99 -99 -99
005 021 016 013 005 007 011 011 006 014 042 031 029 009 012 025 062 096 085 036 019 022 023 021 019 007 003 -99 -99 -99 -99
002 003 002 002 001 002 006 006 001 001 017 039 055 029 016 025 061 092 105 080 046 037 025 029 028 006 005 -99 -99 000 000
000 000 000 001 000 000 000 002 000 000 013 028 050 062 029 044 055 085 051 053 052 040 031 048 030 010 -99 -99 -99 -99 000
000 000 000 000 000 000 000 000 000 000 000 002 015 054 039 058 049 047 008 013 019 018 031 030 009 -99 -99 -99 -99 -99 000
000 001 000 000 000 001 000 000 000 000 000 001 006 011 011 018 011 004 001 003 003 004 024 008 004 -99 -99 -99 -99 -99 000
000 000 000 000 000 000 000 000 000 000 000 000 001 001 001 000 001 001 000 000 001 001 -99 -99 -99 -99 009 004 -99 -99 -99
000 000 000 000 000 000 000 000 000 000 000 000 000 000 000 000 000 000 000 000 000 000 -99 -99 -99 -99 002 003 -99 -99 -99
000 000 000 000 000 000 000 000 000 000 000 000 000 000 000 000 000 000 000 000 000 000 -99 000 -99 000 001 001 -99 -99 -99
000 000 000 000 000 000 000 000 000 -99 -99 -99 -99 000 000 -99 000 000 000 000 000 000 001 000 000 000 001 001 -99 -99 -99
000 000 000 000 000 000 000 000 000 -99 -99 -99 -99 -99 000 000 000 000 000 000 000 000 001 000 000 000 000 000 -99 -99 -99
-99 000 000 000 000 000 000 000 000 000 -99 -99 -99 000 000 000 000 000 000 000 000 000 000 000 000 000 000 000 000 000 000
-99 000 000 000 000 000 000 000 000 000 000 -99 -99 000 000 000 000 000 -99 000 000 -99 000 000 000 000 000 000 000 000 000
000 000 000 000 000 000 -99 000 000 000 000 -99 -99 000 000 000 000 -99 000 000 000 -99 -99 000 000 000 000 000 000 000 000
000 000 -99 000 000 -99 -99 000 000 000 000 -99 -99 -99 000 000 000 000 -99 000 000 -99 000 000 000 000 000 000 000 000 000
000 -99 -99 000 000 -99 -99 000 000 000 -99 -99 -99 -99 000 000 000 000 000 -99 -99 -99 000 000 000 000 000 -99 000 000 000
000 -99 -99 -99 000 000 -99 -99 -99 000 -99 -99 -99 -99 000 000 000 000 -99 -99 -99 -99 000 000 000 000 000 -99 -99 000 -99
000 -99 -99 000 000 -99 -99 -99 -99 -99 -99 000 000 000 000 000 000 000 -99 -99 -99 -99 -99 000 -99 000 000 -99 -99 -99 -99
-99 -99 -99 000 000 -99 -99 -99 -99 -99 000 000 000 000 000 000 000 -99 -99 -99 000 -99 -99 000 -99 000 000 -99 -99 -99 -99
000 -99 -99 000 -99 -99 -99 -99 -99 -99 000 000 000 000 000 000 -99 -99 -99 000 000 -99 -99 000 000 000 -99 -99 -99 -99 -99
-99 -99 -99 -99 -99 -99 -99 -99 -99 000 000 000 000 000 -99 000 000 -99 -99 000 -99 -99 -99 000 000 000 -99 -99 -99 -99 -99
-99 -99 -99 -99 -99 -99 -99 -99 -99 -99 -99 -99 000 -99 000 000 000 -99 000 -99 -99 -99 -99 -99 000 000 -99 -99 -99 -99 -99
-99 -99 -99 -99 -99 -99 -99 -99 -99 -99 -99 -99 000 -99 000 -99 -99 -99 000 000 -99 -99 -99 000 -99 -99 -99 -99 -99 -99 -99
-99 -99 -99 -99 -99 -99 -99 -99 -99 -99 -99 000 000 -99 -99 -99 -99 000 000 -99 -99 -99 -99 -99 -99 -99 -99 -99 -99 -99 000
-99 -99 -99 -99 -99 -99 -99 -99 -99 -99 000 000 000 000 -99 -99 -99 000 000 000 -99 -99 000 -99 -99 -99 -99 -99 -99 -99 -99
-99 -99 -99 -99 -99 -99 -99 -99 -99 -99 000 000 -99 000 -99 -99 -99 000 000 -99 -99 000 000 000 -99 -99 -99 -99 -99 -99 -99
-99 -99 -99 -99 -99 -99 -99 -99 -99 -99 -99 -99 -99 000 -99 -99 -99 000 000 -99 -99 -99 000 -99 -99 -99 -99 -99 -99 -99 -99
-99 -99 -99 -99 -99 -99 -99 -99 -99 -99 -99 -99 -99 -99 -99 -99 -99 000 000 -99 -99 000 -99 -99 -99 -99 -99 -99 -99 -99 -99
-99 -99 -99 -99 -99 -99 -99 -99 -99 -99 -99 -99 -99 -99 -99 -99 000 000 -99 -99 -99 -99 -99 -99 -99 000 -99 -99 -99 -99 -99
-99 -99 -99 -99 -99 -99 -99 -99 -99 -99 -99 -99 -99 -99 -99 -99 -99 000 -99 -99 -99 -99 -99 -99 -99 000 -99 -99 -99 -99 -99
-99 -99 -99 -99 -99 -99 -99 -99 -99 -99 -99 -99 -99 -99 -99 -99 -99 -99 -99 -99 -99 -99 -99 -99 -99 -99 -99 -99 -99 -99 -99
-99 -99 -99 -99 -99 -99 -99 -99 -99 -99 -99 -99 -99 -99 -99 -99 -99 -99 -99 -99 -99 -99 -99 -99 -99 -99 -99 -99 -99 -99 -99
-99 -99 -99 -99 -99 -99 -99 -99 -99 -99 -99 -99 -99 -99 -99 -99 -99 -99 -99 -99 -99 -99 -99 -99 -99 000 000 -99 -99 -99 -99
